Maximize
 obj: 0 X1
Subject To
 c1:
  + 80 X1 + 4450 X2 + 6000 X3 + 290 X4 + 4820 X5 + 7300 X6 + 3770 X7 + 2070 X8
  + 2590 X9 + 630 X10
  <= 16000
 obj1:
  + 820 X1 + 507 X2 + 89 X3 + 786 X4 + 342 X5 + 812 X6 + 919 X7 + 278 X8
  + 195 X9 + 861 X10
  >= 1
 obj2:
  + 351 X1 + 447 X2 + 21 X3 + 38 X4 + 130 X5 + 349 X6 + 725 X7 + 530 X8
  + 687 X9 + 927 X10
  >= 2
 obj3:
  + 845 X1 + 120 X2 + 58 X3 + 286 X4 + 626 X5 + 608 X6 + 321 X7 + 752 X8
  + 624 X9 + 970 X10
  >= 3
 obj4:
  + 59 X1 + 444 X2 + 476 X3 + 147 X4 + 229 X5 + 817 X6 + 959 X7 + 148 X8
  + 94 X9 + 154 X10
  >= 4
Binary
 X1
 X2
 X3
 X4
 X5
 X6
 X7
 X8
 X9
 X10
End
